Maximize
  - 2.916079915264 edge_0_1_0_0 - 2.8181334718482 edge_0_2_0_0
   - 3.032414380314 edge_0_3_0_0 - 2.5597321665994 edge_0_4_0_0
   - 1.42973058308 edge_0_5_0_0 - 2.52527 edge_0_6_0_0
   - 1.893349204793 edge_0_7_0_0 - 1.35339959398 edge_0_8_0_0
   - 3.5541967475102 edge_0_9_0_0 - 3.254772123738 edge_0_10_0_0
   - 5.0758684392573 edge_0_11_0_0 - 0.26878269822188 edge_0_12_0_0
   - 2.0960730512832 edge_0_13_0_0 - 2.2413117275652 edge_0_19_0_0
   - 0.5896242051968097 edge_1_2_0_0 + 0.0198253611120927 edge_1_3_0_0
   - 0.2267479208761696 edge_1_4_0_0 - 0.4994361014428332 edge_1_5_0_0
   - 0.6711707352943821 edge_1_6_0_0 - 0.8719585801761798 edge_1_7_0_0
   - 0.8076002744040476 edge_1_10_0_0 - 1.222194602960569 edge_1_12_0_0
   - 0.5773604375990142 edge_1_20_0_0 + 0.4249230546408204 edge_2_1_0_0
   + 1.422497607248865 edge_2_3_0_0 + 2.648457127829691 edge_2_4_0_0
   + 0.2216348092560649 edge_2_5_0_0 + 0.694523594400278 edge_2_6_0_0
   + 0.4295167281616584 edge_2_7_0_0 + 0.9192142288896 edge_2_8_0_0
   + 0.5981909750501744 edge_2_9_0_0 + 0.16296350752215 edge_2_10_0_0
   + 0.20228525887806 edge_2_11_0_0 - 0.1394744216976 edge_2_12_0_0
   - 0.5010744595396099 edge_2_13_0_0 - 0.7635131542985006 edge_2_18_0_0
   - 0.8370976800961017 edge_2_19_0_0 + 1.1642397205824 edge_2_20_0_0
   - 0.0736723225369809 edge_3_1_0_0 + 0.3937403639689984 edge_3_2_0_0
   + 0.699905495101821 edge_3_4_0_0 + 0.4130333555781944 edge_3_5_0_0
   + 0.0140606 edge_3_6_0_0 - 0.2634996605987416 edge_3_7_0_0
   - 0.8673150323815192 edge_3_10_0_0 - 0.5565361254954505 edge_3_13_0_0
   - 0.1577840613960232 edge_3_20_0_0 - 0.0800472122176093 edge_4_1_0_0
   + 3.090277844366193 edge_4_2_0_0 + 3.661781350844825 edge_4_3_0_0
   + 1.202195835584644 edge_4_5_0_0 + 0.4675593334784732 edge_4_6_0_0
   + 0.7723626256690963 edge_4_7_0_0 + 1.0002419608262 edge_4_8_0_0
   + 0.4880566240860273 edge_4_9_0_0 + 0.1876386036560434 edge_4_10_0_0
   - 0.3346301941851532 edge_4_11_0_0 - 0.279519835376319 edge_4_12_0_0
   + 0.3311888045895313 edge_4_13_0_0 + 0.0202433825700022 edge_4_16_0_0
   - 0.7961329816728744 edge_4_19_0_0 + 1.365879098519338 edge_4_20_0_0
   + 0.8788281507233667 edge_5_1_0_0 + 2.042696547875106 edge_5_2_0_0
   + 1.86435817286118 edge_5_3_0_0 + 2.415802403157384 edge_5_4_0_0
   + 1.083553198394843 edge_5_6_0_0 + 3.498917474074509 edge_5_7_0_0
   + 0.0945078352006063 edge_5_8_0_0 + 0.1814581747212622 edge_5_9_0_0
   + 1.199559844220427 edge_5_10_0_0 + 0.032438388437004 edge_5_11_0_0
   + 0.2651151384710811 edge_5_12_0_0 + 1.168684818711833 edge_5_13_0_0
   + 0.4226703266331803 edge_5_19_0_0 + 2.333959086840677 edge_5_20_0_0
   - 0.7516780445685438 edge_6_1_0_0 + 0.27273149712864 edge_6_2_0_0
   + 9.5356318496045997e-04 edge_6_3_0_0 + 0.0213923413668608 edge_6_4_0_0
   + 1.1646939787486 edge_6_5_0_0 + 1.4095794079764 edge_6_7_0_0
   + 0.6923007923097001 edge_6_8_0_0 + 0.85945794288178 edge_6_9_0_0
   + 0.3165360778692457 edge_6_10_0_0 - 0.7222062884041949 edge_6_11_0_0
   - 0.050697177590168 edge_6_12_0_0 - 0.222756104220122 edge_6_13_0_0
   + 0.1101343010456 edge_6_18_0_0 + 0.006227460305781 edge_6_19_0_0
   + 0.47810825893105 edge_6_20_0_0 - 0.649645275059712 edge_7_1_0_0
   + 1.524360540204379 edge_7_2_0_0 + 1.473011164356711 edge_7_3_0_0
   + 0.6767837127354013 edge_7_4_0_0 + 1.921491923011 edge_7_5_0_0
   + 4.086209019309645 edge_7_6_0_0 + 0.8501013879266672 edge_7_8_0_0
   + 1.330215988282036 edge_7_9_0_0 + 2.646568785123564 edge_7_10_0_0
   + 0.0854219687991676 edge_7_11_0_0 + 0.7635522284248094 edge_7_12_0_0
   + 1.18976130611157 edge_7_13_0_0 - 0.0425151981949693 edge_7_18_0_0
   + 0.1328968960188202 edge_7_19_0_0 + 1.162507709856057 edge_7_20_0_0
   + 0.5529386782195468 edge_8_1_0_0 + 1.153987398935 edge_8_2_0_0
   + 1.445264493859605 edge_8_3_0_0 + 1.44503737019103 edge_8_4_0_0
   + 3.421979425771591 edge_8_5_0_0 + 1.941165160535 edge_8_6_0_0
   + 3.252494200434336 edge_8_7_0_0 + 2.490789390981758 edge_8_9_0_0
   + 1.453218446895403 edge_8_10_0_0 - 0.4243182894185748 edge_8_11_0_0
   + 1.507334689634658 edge_8_12_0_0 + 1.132048170351217 edge_8_13_0_0
   + 1.627411907884189 edge_8_16_0_0 + 1.028878212240444 edge_8_18_0_0
   + 1.122855459913861 edge_8_19_0_0 + 3.008444434368899 edge_8_20_0_0
   - 1.238046629784932 edge_9_1_0_0 - 0.6091216647976547 edge_9_5_0_0
   + 0.5911702750753313 edge_9_6_0_0 + 0.8693864722508086 edge_9_7_0_0
   - 0.00694419317104432 edge_9_8_0_0 + 0.199086013080307 edge_9_10_0_0
   - 0.1452440066689972 edge_9_11_0_0 + 0.00710955703265447 edge_9_12_0_0
   - 0.0355359672581175 edge_9_13_0_0 - 0.2746547362976462 edge_9_18_0_0
   - 0.4712301118236079 edge_9_19_0_0 - 0.1765555988741961 edge_9_20_0_0
   - 0.764650999161683 edge_10_1_0_0 - 0.6803755776829852 edge_10_2_0_0
   - 0.5842460938973244 edge_10_3_0_0 - 0.4053719920131919 edge_10_4_0_0
   + 1.062634834030151 edge_10_5_0_0 + 0.4654717126323166 edge_10_6_0_0
   + 0.9778279658532487 edge_10_7_0_0 + 0.4038587254498278 edge_10_8_0_0
   + 0.2357465261303086 edge_10_9_0_0 + 1.460673664612869 edge_10_11_0_0
   + 0.7907255278175265 edge_10_12_0_0 + 1.642253007815891 edge_10_13_0_0
   + 0.2624192320330279 edge_10_16_0_0 + 0.5657481329628862 edge_10_18_0_0
   + 0.4157690999669179 edge_10_19_0_0 + 0.467624620105519 edge_10_20_0_0
   - 1.009502298434395 edge_11_1_0_0 - 0.31377721321476 edge_11_2_0_0
   - 0.9589769788087221 edge_11_3_0_0 - 0.1414960385518688 edge_11_4_0_0
   - 0.7671880623346453 edge_11_5_0_0 - 0.5292414520192581 edge_11_6_0_0
   - 0.0510673313716119 edge_11_7_0_0 + 1.567407663058484 edge_11_8_0_0
   - 0.4247061620956798 edge_11_9_0_0 + 1.227412779583527 edge_11_10_0_0
   - 0.099554495664861 edge_11_12_0_0 + 0.2830000026758409 edge_11_13_0_0
   - 0.1191093761374278 edge_11_20_0_0 + 0.2031932353641807 edge_12_1_0_0
   + 0.5559895877139927 edge_12_2_0_0 - 0.0993540251878751 edge_12_3_0_0
   + 0.7687982243062996 edge_12_4_0_0 + 1.534222939597657 edge_12_5_0_0
   + 0.34804708574596 edge_12_6_0_0 + 0.1585455770224697 edge_12_7_0_0
   + 0.4258517186392461 edge_12_8_0_0 + 1.342077838238959 edge_12_9_0_0
   + 3.064866065288404 edge_12_10_0_0 + 1.697594727117493 edge_12_11_0_0
   + 2.928042860815162 edge_12_13_0_0 + 0.4240514406595173 edge_12_16_0_0
   + 1.186380297066386 edge_12_18_0_0 + 2.031617668625198 edge_12_19_0_0
   + 3.54962646579805 edge_12_20_0_0 - 0.8383519431605552 edge_13_1_0_0
   - 0.1454447167561964 edge_13_2_0_0 + 0.1105790133207844 edge_13_3_0_0
   + 0.3268199411955146 edge_13_4_0_0 + 1.461711496614339 edge_13_5_0_0
   + 0.8761244003235495 edge_13_6_0_0 + 0.7026317803256511 edge_13_7_0_0
   + 0.4999671462389125 edge_13_8_0_0 + 0.3112606853616802 edge_13_9_0_0
   + 3.035711144118928 edge_13_10_0_0 + 2.690770837590087 edge_13_11_0_0
   + 3.33788059756677 edge_13_12_0_0 + 1.247540788808727 edge_13_13_0_0
   + 2.869901205154392 edge_13_16_0_0 + 2.669290480860698 edge_13_18_0_0
   + 2.934800334334301 edge_13_19_0_0 + 2.421806466260465 edge_13_20_0_0
   - 1.6811628638328 edge_16_2_0_0 - 0.7053230743440601 edge_16_6_0_0
   - 0.93144493901928 edge_16_7_0_0 - 0.3933351223936975 edge_16_8_0_0
   - 0.2790473156419377 edge_16_9_0_0 + 0.0586719481971195 edge_16_10_0_0
   - 0.4562979186939882 edge_16_12_0_0 - 0.6109757121351718 edge_16_13_0_0
   + 1.894842303161385 edge_16_18_0_0 + 0.4809629580197019 edge_18_10_0_0
   + 0.4402098166429504 edge_18_12_0_0 - 0.0571377773867592 edge_18_13_0_0
   - 0.3665600686838129 edge_18_20_0_0 + 0.2335820861191414 edge_19_2_0_0
   - 0.2644500355976084 edge_19_3_0_0 + 0.2793383622865235 edge_19_4_0_0
   + 1.116659015697001 edge_19_5_0_0 + 0.62870284912788 edge_19_6_0_0
   + 0.4921598016422965 edge_19_7_0_0 + 0.6354274536560868 edge_19_8_0_0
   + 0.6392832625381006 edge_19_9_0_0 + 1.706898367851787 edge_19_10_0_0
   + 1.806691054050317 edge_19_12_0_0 + 0.9974002431246067 edge_19_13_0_0
   + 3.547007751483239 edge_19_18_0_0 + 1.101854728553124 edge_19_20_0_0
   - 1.418688951278717 edge_20_13_0_0
Subject To
 one_parent_1: edge_0_1_0_0 + edge_2_1_0_0 + edge_3_1_0_0 + edge_4_1_0_0
   + edge_5_1_0_0 + edge_6_1_0_0 + edge_7_1_0_0 + edge_8_1_0_0
   + edge_9_1_0_0 + edge_10_1_0_0 + edge_11_1_0_0 + edge_12_1_0_0
   + edge_13_1_0_0 = 1
 consume_one_flow_unit_1: flow_0_1_0_0 - flow_1_2_0_0 - flow_1_3_0_0
   - flow_1_4_0_0 - flow_1_5_0_0 - flow_1_6_0_0 - flow_1_7_0_0
   - flow_1_10_0_0 - flow_1_12_0_0 - flow_1_20_0_0 + flow_2_1_0_0
   + flow_3_1_0_0 + flow_4_1_0_0 + flow_5_1_0_0 + flow_6_1_0_0
   + flow_7_1_0_0 + flow_8_1_0_0 + flow_9_1_0_0 + flow_10_1_0_0
   + flow_11_1_0_0 + flow_12_1_0_0 + flow_13_1_0_0 = 1
 one_parent_2: edge_0_2_0_0 + edge_1_2_0_0 + edge_3_2_0_0 + edge_4_2_0_0
   + edge_5_2_0_0 + edge_6_2_0_0 + edge_7_2_0_0 + edge_8_2_0_0
   + edge_10_2_0_0 + edge_11_2_0_0 + edge_12_2_0_0 + edge_13_2_0_0
   + edge_16_2_0_0 + edge_19_2_0_0 = 1
 consume_one_flow_unit_2: flow_0_2_0_0 + flow_1_2_0_0 - flow_2_1_0_0
   - flow_2_3_0_0 - flow_2_4_0_0 - flow_2_5_0_0 - flow_2_6_0_0
   - flow_2_7_0_0 - flow_2_8_0_0 - flow_2_9_0_0 - flow_2_10_0_0
   - flow_2_11_0_0 - flow_2_12_0_0 - flow_2_13_0_0 - flow_2_18_0_0
   - flow_2_19_0_0 - flow_2_20_0_0 + flow_3_2_0_0 + flow_4_2_0_0
   + flow_5_2_0_0 + flow_6_2_0_0 + flow_7_2_0_0 + flow_8_2_0_0
   + flow_10_2_0_0 + flow_11_2_0_0 + flow_12_2_0_0 + flow_13_2_0_0
   + flow_16_2_0_0 + flow_19_2_0_0 = 1
 one_parent_3: edge_0_3_0_0 + edge_1_3_0_0 + edge_2_3_0_0 + edge_4_3_0_0
   + edge_5_3_0_0 + edge_6_3_0_0 + edge_7_3_0_0 + edge_8_3_0_0
   + edge_10_3_0_0 + edge_11_3_0_0 + edge_12_3_0_0 + edge_13_3_0_0
   + edge_19_3_0_0 = 1
 consume_one_flow_unit_3: flow_0_3_0_0 + flow_1_3_0_0 + flow_2_3_0_0
   - flow_3_1_0_0 - flow_3_2_0_0 - flow_3_4_0_0 - flow_3_5_0_0
   - flow_3_6_0_0 - flow_3_7_0_0 - flow_3_10_0_0 - flow_3_13_0_0
   - flow_3_20_0_0 + flow_4_3_0_0 + flow_5_3_0_0 + flow_6_3_0_0
   + flow_7_3_0_0 + flow_8_3_0_0 + flow_10_3_0_0 + flow_11_3_0_0
   + flow_12_3_0_0 + flow_13_3_0_0 + flow_19_3_0_0 = 1
 one_parent_4: edge_0_4_0_0 + edge_1_4_0_0 + edge_2_4_0_0 + edge_3_4_0_0
   + edge_5_4_0_0 + edge_6_4_0_0 + edge_7_4_0_0 + edge_8_4_0_0
   + edge_10_4_0_0 + edge_11_4_0_0 + edge_12_4_0_0 + edge_13_4_0_0
   + edge_19_4_0_0 = 1
 consume_one_flow_unit_4: flow_0_4_0_0 + flow_1_4_0_0 + flow_2_4_0_0
   + flow_3_4_0_0 - flow_4_1_0_0 - flow_4_2_0_0 - flow_4_3_0_0
   - flow_4_5_0_0 - flow_4_6_0_0 - flow_4_7_0_0 - flow_4_8_0_0
   - flow_4_9_0_0 - flow_4_10_0_0 - flow_4_11_0_0 - flow_4_12_0_0
   - flow_4_13_0_0 - flow_4_16_0_0 - flow_4_19_0_0 - flow_4_20_0_0
   + flow_5_4_0_0 + flow_6_4_0_0 + flow_7_4_0_0 + flow_8_4_0_0
   + flow_10_4_0_0 + flow_11_4_0_0 + flow_12_4_0_0 + flow_13_4_0_0
   + flow_19_4_0_0 = 1
 one_parent_5: edge_0_5_0_0 + edge_1_5_0_0 + edge_2_5_0_0 + edge_3_5_0_0
   + edge_4_5_0_0 + edge_6_5_0_0 + edge_7_5_0_0 + edge_8_5_0_0
   + edge_9_5_0_0 + edge_10_5_0_0 + edge_11_5_0_0 + edge_12_5_0_0
   + edge_13_5_0_0 + edge_19_5_0_0 = 1
 consume_one_flow_unit_5: flow_0_5_0_0 + flow_1_5_0_0 + flow_2_5_0_0
   + flow_3_5_0_0 + flow_4_5_0_0 - flow_5_1_0_0 - flow_5_2_0_0
   - flow_5_3_0_0 - flow_5_4_0_0 - flow_5_6_0_0 - flow_5_7_0_0
   - flow_5_8_0_0 - flow_5_9_0_0 - flow_5_10_0_0 - flow_5_11_0_0
   - flow_5_12_0_0 - flow_5_13_0_0 - flow_5_19_0_0 - flow_5_20_0_0
   + flow_6_5_0_0 + flow_7_5_0_0 + flow_8_5_0_0 + flow_9_5_0_0
   + flow_10_5_0_0 + flow_11_5_0_0 + flow_12_5_0_0 + flow_13_5_0_0
   + flow_19_5_0_0 = 1
 one_parent_6: edge_0_6_0_0 + edge_1_6_0_0 + edge_2_6_0_0 + edge_3_6_0_0
   + edge_4_6_0_0 + edge_5_6_0_0 + edge_7_6_0_0 + edge_8_6_0_0
   + edge_9_6_0_0 + edge_10_6_0_0 + edge_11_6_0_0 + edge_12_6_0_0
   + edge_13_6_0_0 + edge_16_6_0_0 + edge_19_6_0_0 = 1
 consume_one_flow_unit_6: flow_0_6_0_0 + flow_1_6_0_0 + flow_2_6_0_0
   + flow_3_6_0_0 + flow_4_6_0_0 + flow_5_6_0_0 - flow_6_1_0_0
   - flow_6_2_0_0 - flow_6_3_0_0 - flow_6_4_0_0 - flow_6_5_0_0
   - flow_6_7_0_0 - flow_6_8_0_0 - flow_6_9_0_0 - flow_6_10_0_0
   - flow_6_11_0_0 - flow_6_12_0_0 - flow_6_13_0_0 - flow_6_18_0_0
   - flow_6_19_0_0 - flow_6_20_0_0 + flow_7_6_0_0 + flow_8_6_0_0
   + flow_9_6_0_0 + flow_10_6_0_0 + flow_11_6_0_0 + flow_12_6_0_0
   + flow_13_6_0_0 + flow_16_6_0_0 + flow_19_6_0_0 = 1
 one_parent_7: edge_0_7_0_0 + edge_1_7_0_0 + edge_2_7_0_0 + edge_3_7_0_0
   + edge_4_7_0_0 + edge_5_7_0_0 + edge_6_7_0_0 + edge_8_7_0_0
   + edge_9_7_0_0 + edge_10_7_0_0 + edge_11_7_0_0 + edge_12_7_0_0
   + edge_13_7_0_0 + edge_16_7_0_0 + edge_19_7_0_0 = 1
 consume_one_flow_unit_7: flow_0_7_0_0 + flow_1_7_0_0 + flow_2_7_0_0
   + flow_3_7_0_0 + flow_4_7_0_0 + flow_5_7_0_0 + flow_6_7_0_0
   - flow_7_1_0_0 - flow_7_2_0_0 - flow_7_3_0_0 - flow_7_4_0_0
   - flow_7_5_0_0 - flow_7_6_0_0 - flow_7_8_0_0 - flow_7_9_0_0
   - flow_7_10_0_0 - flow_7_11_0_0 - flow_7_12_0_0 - flow_7_13_0_0
   - flow_7_18_0_0 - flow_7_19_0_0 - flow_7_20_0_0 + flow_8_7_0_0
   + flow_9_7_0_0 + flow_10_7_0_0 + flow_11_7_0_0 + flow_12_7_0_0
   + flow_13_7_0_0 + flow_16_7_0_0 + flow_19_7_0_0 = 1
 one_parent_8: edge_0_8_0_0 + edge_2_8_0_0 + edge_4_8_0_0 + edge_5_8_0_0
   + edge_6_8_0_0 + edge_7_8_0_0 + edge_9_8_0_0 + edge_10_8_0_0
   + edge_11_8_0_0 + edge_12_8_0_0 + edge_13_8_0_0 + edge_16_8_0_0
   + edge_19_8_0_0 = 1
 consume_one_flow_unit_8: flow_0_8_0_0 + flow_2_8_0_0 + flow_4_8_0_0
   + flow_5_8_0_0 + flow_6_8_0_0 + flow_7_8_0_0 - flow_8_1_0_0
   - flow_8_2_0_0 - flow_8_3_0_0 - flow_8_4_0_0 - flow_8_5_0_0
   - flow_8_6_0_0 - flow_8_7_0_0 - flow_8_9_0_0 - flow_8_10_0_0
   - flow_8_11_0_0 - flow_8_12_0_0 - flow_8_13_0_0 - flow_8_16_0_0
   - flow_8_18_0_0 - flow_8_19_0_0 - flow_8_20_0_0 + flow_9_8_0_0
   + flow_10_8_0_0 + flow_11_8_0_0 + flow_12_8_0_0 + flow_13_8_0_0
   + flow_16_8_0_0 + flow_19_8_0_0 = 1
 one_parent_9: edge_0_9_0_0 + edge_2_9_0_0 + edge_4_9_0_0 + edge_5_9_0_0
   + edge_6_9_0_0 + edge_7_9_0_0 + edge_8_9_0_0 + edge_10_9_0_0
   + edge_11_9_0_0 + edge_12_9_0_0 + edge_13_9_0_0 + edge_16_9_0_0
   + edge_19_9_0_0 = 1
 consume_one_flow_unit_9: flow_0_9_0_0 + flow_2_9_0_0 + flow_4_9_0_0
   + flow_5_9_0_0 + flow_6_9_0_0 + flow_7_9_0_0 + flow_8_9_0_0
   - flow_9_1_0_0 - flow_9_5_0_0 - flow_9_6_0_0 - flow_9_7_0_0
   - flow_9_8_0_0 - flow_9_10_0_0 - flow_9_11_0_0 - flow_9_12_0_0
   - flow_9_13_0_0 - flow_9_18_0_0 - flow_9_19_0_0 - flow_9_20_0_0
   + flow_10_9_0_0 + flow_11_9_0_0 + flow_12_9_0_0 + flow_13_9_0_0
   + flow_16_9_0_0 + flow_19_9_0_0 = 1
 one_parent_10: edge_0_10_0_0 + edge_1_10_0_0 + edge_2_10_0_0
   + edge_3_10_0_0 + edge_4_10_0_0 + edge_5_10_0_0 + edge_6_10_0_0
   + edge_7_10_0_0 + edge_8_10_0_0 + edge_9_10_0_0 + edge_11_10_0_0
   + edge_12_10_0_0 + edge_13_10_0_0 + edge_16_10_0_0 + edge_18_10_0_0
   + edge_19_10_0_0 = 1
 consume_one_flow_unit_10: flow_0_10_0_0 + flow_1_10_0_0 + flow_2_10_0_0
   + flow_3_10_0_0 + flow_4_10_0_0 + flow_5_10_0_0 + flow_6_10_0_0
   + flow_7_10_0_0 + flow_8_10_0_0 + flow_9_10_0_0 - flow_10_1_0_0
   - flow_10_2_0_0 - flow_10_3_0_0 - flow_10_4_0_0 - flow_10_5_0_0
   - flow_10_6_0_0 - flow_10_7_0_0 - flow_10_8_0_0 - flow_10_9_0_0
   - flow_10_11_0_0 - flow_10_12_0_0 - flow_10_13_0_0 - flow_10_16_0_0
   - flow_10_18_0_0 - flow_10_19_0_0 - flow_10_20_0_0 + flow_11_10_0_0
   + flow_12_10_0_0 + flow_13_10_0_0 + flow_16_10_0_0 + flow_18_10_0_0
   + flow_19_10_0_0 = 1
 one_parent_11: edge_0_11_0_0 + edge_2_11_0_0 + edge_4_11_0_0
   + edge_5_11_0_0 + edge_6_11_0_0 + edge_7_11_0_0 + edge_8_11_0_0
   + edge_9_11_0_0 + edge_10_11_0_0 + edge_12_11_0_0 + edge_13_11_0_0 = 1
 consume_one_flow_unit_11: flow_0_11_0_0 + flow_2_11_0_0 + flow_4_11_0_0
   + flow_5_11_0_0 + flow_6_11_0_0 + flow_7_11_0_0 + flow_8_11_0_0
   + flow_9_11_0_0 + flow_10_11_0_0 - flow_11_1_0_0 - flow_11_2_0_0
   - flow_11_3_0_0 - flow_11_4_0_0 - flow_11_5_0_0 - flow_11_6_0_0
   - flow_11_7_0_0 - flow_11_8_0_0 - flow_11_9_0_0 - flow_11_10_0_0
   - flow_11_12_0_0 - flow_11_13_0_0 - flow_11_20_0_0 + flow_12_11_0_0
   + flow_13_11_0_0 = 1
 one_parent_12: edge_0_12_0_0 + edge_1_12_0_0 + edge_2_12_0_0
   + edge_4_12_0_0 + edge_5_12_0_0 + edge_6_12_0_0 + edge_7_12_0_0
   + edge_8_12_0_0 + edge_9_12_0_0 + edge_10_12_0_0 + edge_11_12_0_0
   + edge_13_12_0_0 + edge_16_12_0_0 + edge_18_12_0_0 + edge_19_12_0_0 = 1
 consume_one_flow_unit_12: flow_0_12_0_0 + flow_1_12_0_0 + flow_2_12_0_0
   + flow_4_12_0_0 + flow_5_12_0_0 + flow_6_12_0_0 + flow_7_12_0_0
   + flow_8_12_0_0 + flow_9_12_0_0 + flow_10_12_0_0 + flow_11_12_0_0
   - flow_12_1_0_0 - flow_12_2_0_0 - flow_12_3_0_0 - flow_12_4_0_0
   - flow_12_5_0_0 - flow_12_6_0_0 - flow_12_7_0_0 - flow_12_8_0_0
   - flow_12_9_0_0 - flow_12_10_0_0 - flow_12_11_0_0 - flow_12_13_0_0
   - flow_12_16_0_0 - flow_12_18_0_0 - flow_12_19_0_0 - flow_12_20_0_0
   + flow_13_12_0_0 + flow_16_12_0_0 + flow_18_12_0_0 + flow_19_12_0_0 = 1
 one_parent_13: edge_0_13_0_0 + edge_2_13_0_0 + edge_3_13_0_0
   + edge_4_13_0_0 + edge_5_13_0_0 + edge_6_13_0_0 + edge_7_13_0_0
   + edge_8_13_0_0 + edge_9_13_0_0 + edge_10_13_0_0 + edge_11_13_0_0
   + edge_12_13_0_0 + edge_13_13_0_0 + edge_16_13_0_0 + edge_18_13_0_0
   + edge_19_13_0_0 + edge_20_13_0_0 = 1
 consume_one_flow_unit_13: flow_0_13_0_0 + flow_2_13_0_0 + flow_3_13_0_0
   + flow_4_13_0_0 + flow_5_13_0_0 + flow_6_13_0_0 + flow_7_13_0_0
   + flow_8_13_0_0 + flow_9_13_0_0 + flow_10_13_0_0 + flow_11_13_0_0
   + flow_12_13_0_0 - flow_13_1_0_0 - flow_13_2_0_0 - flow_13_3_0_0
   - flow_13_4_0_0 - flow_13_5_0_0 - flow_13_6_0_0 - flow_13_7_0_0
   - flow_13_8_0_0 - flow_13_9_0_0 - flow_13_10_0_0 - flow_13_11_0_0
   - flow_13_12_0_0 - flow_13_16_0_0 - flow_13_18_0_0 - flow_13_19_0_0
   - flow_13_20_0_0 + flow_16_13_0_0 + flow_18_13_0_0 + flow_19_13_0_0
   + flow_20_13_0_0 = 1
 one_parent_14: = 1
 consume_one_flow_unit_14: = 1
 one_parent_15: = 1
 consume_one_flow_unit_15: = 1
 one_parent_16: edge_4_16_0_0 + edge_8_16_0_0 + edge_10_16_0_0
   + edge_12_16_0_0 + edge_13_16_0_0 = 1
 consume_one_flow_unit_16: flow_4_16_0_0 + flow_8_16_0_0 + flow_10_16_0_0
   + flow_12_16_0_0 + flow_13_16_0_0 - flow_16_2_0_0 - flow_16_6_0_0
   - flow_16_7_0_0 - flow_16_8_0_0 - flow_16_9_0_0 - flow_16_10_0_0
   - flow_16_12_0_0 - flow_16_13_0_0 - flow_16_18_0_0 = 1
 one_parent_17: = 1
 consume_one_flow_unit_17: = 1
 one_parent_18: edge_2_18_0_0 + edge_6_18_0_0 + edge_7_18_0_0
   + edge_8_18_0_0 + edge_9_18_0_0 + edge_10_18_0_0 + edge_12_18_0_0
   + edge_13_18_0_0 + edge_16_18_0_0 + edge_19_18_0_0 = 1
 consume_one_flow_unit_18: flow_2_18_0_0 + flow_6_18_0_0 + flow_7_18_0_0
   + flow_8_18_0_0 + flow_9_18_0_0 + flow_10_18_0_0 + flow_12_18_0_0
   + flow_13_18_0_0 + flow_16_18_0_0 - flow_18_10_0_0 - flow_18_12_0_0
   - flow_18_13_0_0 - flow_18_20_0_0 + flow_19_18_0_0 = 1
 one_parent_19: edge_0_19_0_0 + edge_2_19_0_0 + edge_4_19_0_0
   + edge_5_19_0_0 + edge_6_19_0_0 + edge_7_19_0_0 + edge_8_19_0_0
   + edge_9_19_0_0 + edge_10_19_0_0 + edge_12_19_0_0 + edge_13_19_0_0 = 1
 consume_one_flow_unit_19: flow_0_19_0_0 + flow_2_19_0_0 + flow_4_19_0_0
   + flow_5_19_0_0 + flow_6_19_0_0 + flow_7_19_0_0 + flow_8_19_0_0
   + flow_9_19_0_0 + flow_10_19_0_0 + flow_12_19_0_0 + flow_13_19_0_0
   - flow_19_2_0_0 - flow_19_3_0_0 - flow_19_4_0_0 - flow_19_5_0_0
   - flow_19_6_0_0 - flow_19_7_0_0 - flow_19_8_0_0 - flow_19_9_0_0
   - flow_19_10_0_0 - flow_19_12_0_0 - flow_19_13_0_0 - flow_19_18_0_0
   - flow_19_20_0_0 = 1
 one_parent_20: edge_1_20_0_0 + edge_2_20_0_0 + edge_3_20_0_0
   + edge_4_20_0_0 + edge_5_20_0_0 + edge_6_20_0_0 + edge_7_20_0_0
   + edge_8_20_0_0 + edge_9_20_0_0 + edge_10_20_0_0 + edge_11_20_0_0
   + edge_12_20_0_0 + edge_13_20_0_0 + edge_18_20_0_0 + edge_19_20_0_0 = 1
 consume_one_flow_unit_20: flow_1_20_0_0 + flow_2_20_0_0 + flow_3_20_0_0
   + flow_4_20_0_0 + flow_5_20_0_0 + flow_6_20_0_0 + flow_7_20_0_0
   + flow_8_20_0_0 + flow_9_20_0_0 + flow_10_20_0_0 + flow_11_20_0_0
   + flow_12_20_0_0 + flow_13_20_0_0 + flow_18_20_0_0 + flow_19_20_0_0
   - flow_20_13_0_0 = 1
 root_flow: flow_0_1_0_0 + flow_0_2_0_0 + flow_0_3_0_0 + flow_0_4_0_0
   + flow_0_5_0_0 + flow_0_6_0_0 + flow_0_7_0_0 + flow_0_8_0_0
   + flow_0_9_0_0 + flow_0_10_0_0 + flow_0_11_0_0 + flow_0_12_0_0
   + flow_0_13_0_0 + flow_0_19_0_0 = 20
 inactive_no_flow_0_1_0_0: flow_0_1_0_0 - 1000 edge_0_1_0_0 <= 0
 inactive_no_flow_0_2_0_0: flow_0_2_0_0 - 1000 edge_0_2_0_0 <= 0
 inactive_no_flow_0_3_0_0: flow_0_3_0_0 - 1000 edge_0_3_0_0 <= 0
 inactive_no_flow_0_4_0_0: flow_0_4_0_0 - 1000 edge_0_4_0_0 <= 0
 inactive_no_flow_0_5_0_0: flow_0_5_0_0 - 1000 edge_0_5_0_0 <= 0
 inactive_no_flow_0_6_0_0: flow_0_6_0_0 - 1000 edge_0_6_0_0 <= 0
 inactive_no_flow_0_7_0_0: flow_0_7_0_0 - 1000 edge_0_7_0_0 <= 0
 inactive_no_flow_0_8_0_0: flow_0_8_0_0 - 1000 edge_0_8_0_0 <= 0
 inactive_no_flow_0_9_0_0: flow_0_9_0_0 - 1000 edge_0_9_0_0 <= 0
 inactive_no_flow_0_10_0_0: flow_0_10_0_0 - 1000 edge_0_10_0_0 <= 0
 inactive_no_flow_0_11_0_0: flow_0_11_0_0 - 1000 edge_0_11_0_0 <= 0
 inactive_no_flow_0_12_0_0: flow_0_12_0_0 - 1000 edge_0_12_0_0 <= 0
 inactive_no_flow_0_13_0_0: flow_0_13_0_0 - 1000 edge_0_13_0_0 <= 0
 inactive_no_flow_0_19_0_0: flow_0_19_0_0 - 1000 edge_0_19_0_0 <= 0
 inactive_no_flow_1_2_0_0: flow_1_2_0_0 - 1000 edge_1_2_0_0 <= 0
 inactive_no_flow_1_3_0_0: flow_1_3_0_0 - 1000 edge_1_3_0_0 <= 0
 inactive_no_flow_1_4_0_0: flow_1_4_0_0 - 1000 edge_1_4_0_0 <= 0
 inactive_no_flow_1_5_0_0: flow_1_5_0_0 - 1000 edge_1_5_0_0 <= 0
 inactive_no_flow_1_6_0_0: flow_1_6_0_0 - 1000 edge_1_6_0_0 <= 0
 inactive_no_flow_1_7_0_0: flow_1_7_0_0 - 1000 edge_1_7_0_0 <= 0
 inactive_no_flow_1_10_0_0: flow_1_10_0_0 - 1000 edge_1_10_0_0 <= 0
 inactive_no_flow_1_12_0_0: flow_1_12_0_0 - 1000 edge_1_12_0_0 <= 0
 inactive_no_flow_1_20_0_0: flow_1_20_0_0 - 1000 edge_1_20_0_0 <= 0
 inactive_no_flow_2_1_0_0: flow_2_1_0_0 - 1000 edge_2_1_0_0 <= 0
 inactive_no_flow_2_3_0_0: flow_2_3_0_0 - 1000 edge_2_3_0_0 <= 0
 inactive_no_flow_2_4_0_0: flow_2_4_0_0 - 1000 edge_2_4_0_0 <= 0
 inactive_no_flow_2_5_0_0: flow_2_5_0_0 - 1000 edge_2_5_0_0 <= 0
 inactive_no_flow_2_6_0_0: flow_2_6_0_0 - 1000 edge_2_6_0_0 <= 0
 inactive_no_flow_2_7_0_0: flow_2_7_0_0 - 1000 edge_2_7_0_0 <= 0
 inactive_no_flow_2_8_0_0: flow_2_8_0_0 - 1000 edge_2_8_0_0 <= 0
 inactive_no_flow_2_9_0_0: flow_2_9_0_0 - 1000 edge_2_9_0_0 <= 0
 inactive_no_flow_2_10_0_0: flow_2_10_0_0 - 1000 edge_2_10_0_0 <= 0
 inactive_no_flow_2_11_0_0: flow_2_11_0_0 - 1000 edge_2_11_0_0 <= 0
 inactive_no_flow_2_12_0_0: flow_2_12_0_0 - 1000 edge_2_12_0_0 <= 0
 inactive_no_flow_2_13_0_0: flow_2_13_0_0 - 1000 edge_2_13_0_0 <= 0
 inactive_no_flow_2_18_0_0: flow_2_18_0_0 - 1000 edge_2_18_0_0 <= 0
 inactive_no_flow_2_19_0_0: flow_2_19_0_0 - 1000 edge_2_19_0_0 <= 0
 inactive_no_flow_2_20_0_0: flow_2_20_0_0 - 1000 edge_2_20_0_0 <= 0
 inactive_no_flow_3_1_0_0: flow_3_1_0_0 - 1000 edge_3_1_0_0 <= 0
 inactive_no_flow_3_2_0_0: flow_3_2_0_0 - 1000 edge_3_2_0_0 <= 0
 inactive_no_flow_3_4_0_0: flow_3_4_0_0 - 1000 edge_3_4_0_0 <= 0
 inactive_no_flow_3_5_0_0: flow_3_5_0_0 - 1000 edge_3_5_0_0 <= 0
 inactive_no_flow_3_6_0_0: flow_3_6_0_0 - 1000 edge_3_6_0_0 <= 0
 inactive_no_flow_3_7_0_0: flow_3_7_0_0 - 1000 edge_3_7_0_0 <= 0
 inactive_no_flow_3_10_0_0: flow_3_10_0_0 - 1000 edge_3_10_0_0 <= 0
 inactive_no_flow_3_13_0_0: flow_3_13_0_0 - 1000 edge_3_13_0_0 <= 0
 inactive_no_flow_3_20_0_0: flow_3_20_0_0 - 1000 edge_3_20_0_0 <= 0
 inactive_no_flow_4_1_0_0: flow_4_1_0_0 - 1000 edge_4_1_0_0 <= 0
 inactive_no_flow_4_2_0_0: flow_4_2_0_0 - 1000 edge_4_2_0_0 <= 0
 inactive_no_flow_4_3_0_0: flow_4_3_0_0 - 1000 edge_4_3_0_0 <= 0
 inactive_no_flow_4_5_0_0: flow_4_5_0_0 - 1000 edge_4_5_0_0 <= 0
 inactive_no_flow_4_6_0_0: flow_4_6_0_0 - 1000 edge_4_6_0_0 <= 0
 inactive_no_flow_4_7_0_0: flow_4_7_0_0 - 1000 edge_4_7_0_0 <= 0
 inactive_no_flow_4_8_0_0: flow_4_8_0_0 - 1000 edge_4_8_0_0 <= 0
 inactive_no_flow_4_9_0_0: flow_4_9_0_0 - 1000 edge_4_9_0_0 <= 0
 inactive_no_flow_4_10_0_0: flow_4_10_0_0 - 1000 edge_4_10_0_0 <= 0
 inactive_no_flow_4_11_0_0: flow_4_11_0_0 - 1000 edge_4_11_0_0 <= 0
 inactive_no_flow_4_12_0_0: flow_4_12_0_0 - 1000 edge_4_12_0_0 <= 0
 inactive_no_flow_4_13_0_0: flow_4_13_0_0 - 1000 edge_4_13_0_0 <= 0
 inactive_no_flow_4_16_0_0: flow_4_16_0_0 - 1000 edge_4_16_0_0 <= 0
 inactive_no_flow_4_19_0_0: flow_4_19_0_0 - 1000 edge_4_19_0_0 <= 0
 inactive_no_flow_4_20_0_0: flow_4_20_0_0 - 1000 edge_4_20_0_0 <= 0
 inactive_no_flow_5_1_0_0: flow_5_1_0_0 - 1000 edge_5_1_0_0 <= 0
 inactive_no_flow_5_2_0_0: flow_5_2_0_0 - 1000 edge_5_2_0_0 <= 0
 inactive_no_flow_5_3_0_0: flow_5_3_0_0 - 1000 edge_5_3_0_0 <= 0
 inactive_no_flow_5_4_0_0: flow_5_4_0_0 - 1000 edge_5_4_0_0 <= 0
 inactive_no_flow_5_6_0_0: flow_5_6_0_0 - 1000 edge_5_6_0_0 <= 0
 inactive_no_flow_5_7_0_0: flow_5_7_0_0 - 1000 edge_5_7_0_0 <= 0
 inactive_no_flow_5_8_0_0: flow_5_8_0_0 - 1000 edge_5_8_0_0 <= 0
 inactive_no_flow_5_9_0_0: flow_5_9_0_0 - 1000 edge_5_9_0_0 <= 0
 inactive_no_flow_5_10_0_0: flow_5_10_0_0 - 1000 edge_5_10_0_0 <= 0
 inactive_no_flow_5_11_0_0: flow_5_11_0_0 - 1000 edge_5_11_0_0 <= 0
 inactive_no_flow_5_12_0_0: flow_5_12_0_0 - 1000 edge_5_12_0_0 <= 0
 inactive_no_flow_5_13_0_0: flow_5_13_0_0 - 1000 edge_5_13_0_0 <= 0
 inactive_no_flow_5_19_0_0: flow_5_19_0_0 - 1000 edge_5_19_0_0 <= 0
 inactive_no_flow_5_20_0_0: flow_5_20_0_0 - 1000 edge_5_20_0_0 <= 0
 inactive_no_flow_6_1_0_0: flow_6_1_0_0 - 1000 edge_6_1_0_0 <= 0
 inactive_no_flow_6_2_0_0: flow_6_2_0_0 - 1000 edge_6_2_0_0 <= 0
 inactive_no_flow_6_3_0_0: flow_6_3_0_0 - 1000 edge_6_3_0_0 <= 0
 inactive_no_flow_6_4_0_0: flow_6_4_0_0 - 1000 edge_6_4_0_0 <= 0
 inactive_no_flow_6_5_0_0: flow_6_5_0_0 - 1000 edge_6_5_0_0 <= 0
 inactive_no_flow_6_7_0_0: flow_6_7_0_0 - 1000 edge_6_7_0_0 <= 0
 inactive_no_flow_6_8_0_0: flow_6_8_0_0 - 1000 edge_6_8_0_0 <= 0
 inactive_no_flow_6_9_0_0: flow_6_9_0_0 - 1000 edge_6_9_0_0 <= 0
 inactive_no_flow_6_10_0_0: flow_6_10_0_0 - 1000 edge_6_10_0_0 <= 0
 inactive_no_flow_6_11_0_0: flow_6_11_0_0 - 1000 edge_6_11_0_0 <= 0
 inactive_no_flow_6_12_0_0: flow_6_12_0_0 - 1000 edge_6_12_0_0 <= 0
 inactive_no_flow_6_13_0_0: flow_6_13_0_0 - 1000 edge_6_13_0_0 <= 0
 inactive_no_flow_6_18_0_0: flow_6_18_0_0 - 1000 edge_6_18_0_0 <= 0
 inactive_no_flow_6_19_0_0: flow_6_19_0_0 - 1000 edge_6_19_0_0 <= 0
 inactive_no_flow_6_20_0_0: flow_6_20_0_0 - 1000 edge_6_20_0_0 <= 0
 inactive_no_flow_7_1_0_0: flow_7_1_0_0 - 1000 edge_7_1_0_0 <= 0
 inactive_no_flow_7_2_0_0: flow_7_2_0_0 - 1000 edge_7_2_0_0 <= 0
 inactive_no_flow_7_3_0_0: flow_7_3_0_0 - 1000 edge_7_3_0_0 <= 0
 inactive_no_flow_7_4_0_0: flow_7_4_0_0 - 1000 edge_7_4_0_0 <= 0
 inactive_no_flow_7_5_0_0: flow_7_5_0_0 - 1000 edge_7_5_0_0 <= 0
 inactive_no_flow_7_6_0_0: flow_7_6_0_0 - 1000 edge_7_6_0_0 <= 0
 inactive_no_flow_7_8_0_0: flow_7_8_0_0 - 1000 edge_7_8_0_0 <= 0
 inactive_no_flow_7_9_0_0: flow_7_9_0_0 - 1000 edge_7_9_0_0 <= 0
 inactive_no_flow_7_10_0_0: flow_7_10_0_0 - 1000 edge_7_10_0_0 <= 0
 inactive_no_flow_7_11_0_0: flow_7_11_0_0 - 1000 edge_7_11_0_0 <= 0
 inactive_no_flow_7_12_0_0: flow_7_12_0_0 - 1000 edge_7_12_0_0 <= 0
 inactive_no_flow_7_13_0_0: flow_7_13_0_0 - 1000 edge_7_13_0_0 <= 0
 inactive_no_flow_7_18_0_0: flow_7_18_0_0 - 1000 edge_7_18_0_0 <= 0
 inactive_no_flow_7_19_0_0: flow_7_19_0_0 - 1000 edge_7_19_0_0 <= 0
 inactive_no_flow_7_20_0_0: flow_7_20_0_0 - 1000 edge_7_20_0_0 <= 0
 inactive_no_flow_8_1_0_0: flow_8_1_0_0 - 1000 edge_8_1_0_0 <= 0
 inactive_no_flow_8_2_0_0: flow_8_2_0_0 - 1000 edge_8_2_0_0 <= 0
 inactive_no_flow_8_3_0_0: flow_8_3_0_0 - 1000 edge_8_3_0_0 <= 0
 inactive_no_flow_8_4_0_0: flow_8_4_0_0 - 1000 edge_8_4_0_0 <= 0
 inactive_no_flow_8_5_0_0: flow_8_5_0_0 - 1000 edge_8_5_0_0 <= 0
 inactive_no_flow_8_6_0_0: flow_8_6_0_0 - 1000 edge_8_6_0_0 <= 0
 inactive_no_flow_8_7_0_0: flow_8_7_0_0 - 1000 edge_8_7_0_0 <= 0
 inactive_no_flow_8_9_0_0: flow_8_9_0_0 - 1000 edge_8_9_0_0 <= 0
 inactive_no_flow_8_10_0_0: flow_8_10_0_0 - 1000 edge_8_10_0_0 <= 0
 inactive_no_flow_8_11_0_0: flow_8_11_0_0 - 1000 edge_8_11_0_0 <= 0
 inactive_no_flow_8_12_0_0: flow_8_12_0_0 - 1000 edge_8_12_0_0 <= 0
 inactive_no_flow_8_13_0_0: flow_8_13_0_0 - 1000 edge_8_13_0_0 <= 0
 inactive_no_flow_8_16_0_0: flow_8_16_0_0 - 1000 edge_8_16_0_0 <= 0
 inactive_no_flow_8_18_0_0: flow_8_18_0_0 - 1000 edge_8_18_0_0 <= 0
 inactive_no_flow_8_19_0_0: flow_8_19_0_0 - 1000 edge_8_19_0_0 <= 0
 inactive_no_flow_8_20_0_0: flow_8_20_0_0 - 1000 edge_8_20_0_0 <= 0
 inactive_no_flow_9_1_0_0: flow_9_1_0_0 - 1000 edge_9_1_0_0 <= 0
 inactive_no_flow_9_5_0_0: flow_9_5_0_0 - 1000 edge_9_5_0_0 <= 0
 inactive_no_flow_9_6_0_0: flow_9_6_0_0 - 1000 edge_9_6_0_0 <= 0
 inactive_no_flow_9_7_0_0: flow_9_7_0_0 - 1000 edge_9_7_0_0 <= 0
 inactive_no_flow_9_8_0_0: flow_9_8_0_0 - 1000 edge_9_8_0_0 <= 0
 inactive_no_flow_9_10_0_0: flow_9_10_0_0 - 1000 edge_9_10_0_0 <= 0
 inactive_no_flow_9_11_0_0: flow_9_11_0_0 - 1000 edge_9_11_0_0 <= 0
 inactive_no_flow_9_12_0_0: flow_9_12_0_0 - 1000 edge_9_12_0_0 <= 0
 inactive_no_flow_9_13_0_0: flow_9_13_0_0 - 1000 edge_9_13_0_0 <= 0
 inactive_no_flow_9_18_0_0: flow_9_18_0_0 - 1000 edge_9_18_0_0 <= 0
 inactive_no_flow_9_19_0_0: flow_9_19_0_0 - 1000 edge_9_19_0_0 <= 0
 inactive_no_flow_9_20_0_0: flow_9_20_0_0 - 1000 edge_9_20_0_0 <= 0
 inactive_no_flow_10_1_0_0: flow_10_1_0_0 - 1000 edge_10_1_0_0 <= 0
 inactive_no_flow_10_2_0_0: flow_10_2_0_0 - 1000 edge_10_2_0_0 <= 0
 inactive_no_flow_10_3_0_0: flow_10_3_0_0 - 1000 edge_10_3_0_0 <= 0
 inactive_no_flow_10_4_0_0: flow_10_4_0_0 - 1000 edge_10_4_0_0 <= 0
 inactive_no_flow_10_5_0_0: flow_10_5_0_0 - 1000 edge_10_5_0_0 <= 0
 inactive_no_flow_10_6_0_0: flow_10_6_0_0 - 1000 edge_10_6_0_0 <= 0
 inactive_no_flow_10_7_0_0: flow_10_7_0_0 - 1000 edge_10_7_0_0 <= 0
 inactive_no_flow_10_8_0_0: flow_10_8_0_0 - 1000 edge_10_8_0_0 <= 0
 inactive_no_flow_10_9_0_0: flow_10_9_0_0 - 1000 edge_10_9_0_0 <= 0
 inactive_no_flow_10_11_0_0: flow_10_11_0_0 - 1000 edge_10_11_0_0 <= 0
 inactive_no_flow_10_12_0_0: flow_10_12_0_0 - 1000 edge_10_12_0_0 <= 0
 inactive_no_flow_10_13_0_0: flow_10_13_0_0 - 1000 edge_10_13_0_0 <= 0
 inactive_no_flow_10_16_0_0: flow_10_16_0_0 - 1000 edge_10_16_0_0 <= 0
 inactive_no_flow_10_18_0_0: flow_10_18_0_0 - 1000 edge_10_18_0_0 <= 0
 inactive_no_flow_10_19_0_0: flow_10_19_0_0 - 1000 edge_10_19_0_0 <= 0
 inactive_no_flow_10_20_0_0: flow_10_20_0_0 - 1000 edge_10_20_0_0 <= 0
 inactive_no_flow_11_1_0_0: flow_11_1_0_0 - 1000 edge_11_1_0_0 <= 0
 inactive_no_flow_11_2_0_0: flow_11_2_0_0 - 1000 edge_11_2_0_0 <= 0
 inactive_no_flow_11_3_0_0: flow_11_3_0_0 - 1000 edge_11_3_0_0 <= 0
 inactive_no_flow_11_4_0_0: flow_11_4_0_0 - 1000 edge_11_4_0_0 <= 0
 inactive_no_flow_11_5_0_0: flow_11_5_0_0 - 1000 edge_11_5_0_0 <= 0
 inactive_no_flow_11_6_0_0: flow_11_6_0_0 - 1000 edge_11_6_0_0 <= 0
 inactive_no_flow_11_7_0_0: flow_11_7_0_0 - 1000 edge_11_7_0_0 <= 0
 inactive_no_flow_11_8_0_0: flow_11_8_0_0 - 1000 edge_11_8_0_0 <= 0
 inactive_no_flow_11_9_0_0: flow_11_9_0_0 - 1000 edge_11_9_0_0 <= 0
 inactive_no_flow_11_10_0_0: flow_11_10_0_0 - 1000 edge_11_10_0_0 <= 0
 inactive_no_flow_11_12_0_0: flow_11_12_0_0 - 1000 edge_11_12_0_0 <= 0
 inactive_no_flow_11_13_0_0: flow_11_13_0_0 - 1000 edge_11_13_0_0 <= 0
 inactive_no_flow_11_20_0_0: flow_11_20_0_0 - 1000 edge_11_20_0_0 <= 0
 inactive_no_flow_12_1_0_0: flow_12_1_0_0 - 1000 edge_12_1_0_0 <= 0
 inactive_no_flow_12_2_0_0: flow_12_2_0_0 - 1000 edge_12_2_0_0 <= 0
 inactive_no_flow_12_3_0_0: flow_12_3_0_0 - 1000 edge_12_3_0_0 <= 0
 inactive_no_flow_12_4_0_0: flow_12_4_0_0 - 1000 edge_12_4_0_0 <= 0
 inactive_no_flow_12_5_0_0: flow_12_5_0_0 - 1000 edge_12_5_0_0 <= 0
 inactive_no_flow_12_6_0_0: flow_12_6_0_0 - 1000 edge_12_6_0_0 <= 0
 inactive_no_flow_12_7_0_0: flow_12_7_0_0 - 1000 edge_12_7_0_0 <= 0
 inactive_no_flow_12_8_0_0: flow_12_8_0_0 - 1000 edge_12_8_0_0 <= 0
 inactive_no_flow_12_9_0_0: flow_12_9_0_0 - 1000 edge_12_9_0_0 <= 0
 inactive_no_flow_12_10_0_0: flow_12_10_0_0 - 1000 edge_12_10_0_0 <= 0
 inactive_no_flow_12_11_0_0: flow_12_11_0_0 - 1000 edge_12_11_0_0 <= 0
 inactive_no_flow_12_13_0_0: flow_12_13_0_0 - 1000 edge_12_13_0_0 <= 0
 inactive_no_flow_12_16_0_0: flow_12_16_0_0 - 1000 edge_12_16_0_0 <= 0
 inactive_no_flow_12_18_0_0: flow_12_18_0_0 - 1000 edge_12_18_0_0 <= 0
 inactive_no_flow_12_19_0_0: flow_12_19_0_0 - 1000 edge_12_19_0_0 <= 0
 inactive_no_flow_12_20_0_0: flow_12_20_0_0 - 1000 edge_12_20_0_0 <= 0
 inactive_no_flow_13_1_0_0: flow_13_1_0_0 - 1000 edge_13_1_0_0 <= 0
 inactive_no_flow_13_2_0_0: flow_13_2_0_0 - 1000 edge_13_2_0_0 <= 0
 inactive_no_flow_13_3_0_0: flow_13_3_0_0 - 1000 edge_13_3_0_0 <= 0
 inactive_no_flow_13_4_0_0: flow_13_4_0_0 - 1000 edge_13_4_0_0 <= 0
 inactive_no_flow_13_5_0_0: flow_13_5_0_0 - 1000 edge_13_5_0_0 <= 0
 inactive_no_flow_13_6_0_0: flow_13_6_0_0 - 1000 edge_13_6_0_0 <= 0
 inactive_no_flow_13_7_0_0: flow_13_7_0_0 - 1000 edge_13_7_0_0 <= 0
 inactive_no_flow_13_8_0_0: flow_13_8_0_0 - 1000 edge_13_8_0_0 <= 0
 inactive_no_flow_13_9_0_0: flow_13_9_0_0 - 1000 edge_13_9_0_0 <= 0
 inactive_no_flow_13_10_0_0: flow_13_10_0_0 - 1000 edge_13_10_0_0 <= 0
 inactive_no_flow_13_11_0_0: flow_13_11_0_0 - 1000 edge_13_11_0_0 <= 0
 inactive_no_flow_13_12_0_0: flow_13_12_0_0 - 1000 edge_13_12_0_0 <= 0
 inactive_no_flow_13_13_0_0: flow_13_13_0_0 - 1000 edge_13_13_0_0 <= 0
 inactive_no_flow_13_16_0_0: flow_13_16_0_0 - 1000 edge_13_16_0_0 <= 0
 inactive_no_flow_13_18_0_0: flow_13_18_0_0 - 1000 edge_13_18_0_0 <= 0
 inactive_no_flow_13_19_0_0: flow_13_19_0_0 - 1000 edge_13_19_0_0 <= 0
 inactive_no_flow_13_20_0_0: flow_13_20_0_0 - 1000 edge_13_20_0_0 <= 0
 inactive_no_flow_16_2_0_0: flow_16_2_0_0 - 1000 edge_16_2_0_0 <= 0
 inactive_no_flow_16_6_0_0: flow_16_6_0_0 - 1000 edge_16_6_0_0 <= 0
 inactive_no_flow_16_7_0_0: flow_16_7_0_0 - 1000 edge_16_7_0_0 <= 0
 inactive_no_flow_16_8_0_0: flow_16_8_0_0 - 1000 edge_16_8_0_0 <= 0
 inactive_no_flow_16_9_0_0: flow_16_9_0_0 - 1000 edge_16_9_0_0 <= 0
 inactive_no_flow_16_10_0_0: flow_16_10_0_0 - 1000 edge_16_10_0_0 <= 0
 inactive_no_flow_16_12_0_0: flow_16_12_0_0 - 1000 edge_16_12_0_0 <= 0
 inactive_no_flow_16_13_0_0: flow_16_13_0_0 - 1000 edge_16_13_0_0 <= 0
 inactive_no_flow_16_18_0_0: flow_16_18_0_0 - 1000 edge_16_18_0_0 <= 0
 inactive_no_flow_18_10_0_0: flow_18_10_0_0 - 1000 edge_18_10_0_0 <= 0
 inactive_no_flow_18_12_0_0: flow_18_12_0_0 - 1000 edge_18_12_0_0 <= 0
 inactive_no_flow_18_13_0_0: flow_18_13_0_0 - 1000 edge_18_13_0_0 <= 0
 inactive_no_flow_18_20_0_0: flow_18_20_0_0 - 1000 edge_18_20_0_0 <= 0
 inactive_no_flow_19_2_0_0: flow_19_2_0_0 - 1000 edge_19_2_0_0 <= 0
 inactive_no_flow_19_3_0_0: flow_19_3_0_0 - 1000 edge_19_3_0_0 <= 0
 inactive_no_flow_19_4_0_0: flow_19_4_0_0 - 1000 edge_19_4_0_0 <= 0
 inactive_no_flow_19_5_0_0: flow_19_5_0_0 - 1000 edge_19_5_0_0 <= 0
 inactive_no_flow_19_6_0_0: flow_19_6_0_0 - 1000 edge_19_6_0_0 <= 0
 inactive_no_flow_19_7_0_0: flow_19_7_0_0 - 1000 edge_19_7_0_0 <= 0
 inactive_no_flow_19_8_0_0: flow_19_8_0_0 - 1000 edge_19_8_0_0 <= 0
 inactive_no_flow_19_9_0_0: flow_19_9_0_0 - 1000 edge_19_9_0_0 <= 0
 inactive_no_flow_19_10_0_0: flow_19_10_0_0 - 1000 edge_19_10_0_0 <= 0
 inactive_no_flow_19_12_0_0: flow_19_12_0_0 - 1000 edge_19_12_0_0 <= 0
 inactive_no_flow_19_13_0_0: flow_19_13_0_0 - 1000 edge_19_13_0_0 <= 0
 inactive_no_flow_19_18_0_0: flow_19_18_0_0 - 1000 edge_19_18_0_0 <= 0
 inactive_no_flow_19_20_0_0: flow_19_20_0_0 - 1000 edge_19_20_0_0 <= 0
 inactive_no_flow_20_13_0_0: flow_20_13_0_0 - 1000 edge_20_13_0_0 <= 0
Bounds
Binaries
 edge_0_1_0_0 edge_0_2_0_0 edge_0_3_0_0 edge_0_4_0_0 edge_0_5_0_0
 edge_0_6_0_0 edge_0_7_0_0 edge_0_8_0_0 edge_0_9_0_0 edge_0_10_0_0
 edge_0_11_0_0 edge_0_12_0_0 edge_0_13_0_0 edge_0_19_0_0 edge_1_2_0_0
 edge_1_3_0_0 edge_1_4_0_0 edge_1_5_0_0 edge_1_6_0_0 edge_1_7_0_0
 edge_1_10_0_0 edge_1_12_0_0 edge_1_20_0_0 edge_2_1_0_0 edge_2_3_0_0
 edge_2_4_0_0 edge_2_5_0_0 edge_2_6_0_0 edge_2_7_0_0 edge_2_8_0_0
 edge_2_9_0_0 edge_2_10_0_0 edge_2_11_0_0 edge_2_12_0_0 edge_2_13_0_0
 edge_2_18_0_0 edge_2_19_0_0 edge_2_20_0_0 edge_3_1_0_0 edge_3_2_0_0
 edge_3_4_0_0 edge_3_5_0_0 edge_3_6_0_0 edge_3_7_0_0 edge_3_10_0_0
 edge_3_13_0_0 edge_3_20_0_0 edge_4_1_0_0 edge_4_2_0_0 edge_4_3_0_0
 edge_4_5_0_0 edge_4_6_0_0 edge_4_7_0_0 edge_4_8_0_0 edge_4_9_0_0
 edge_4_10_0_0 edge_4_11_0_0 edge_4_12_0_0 edge_4_13_0_0 edge_4_16_0_0
 edge_4_19_0_0 edge_4_20_0_0 edge_5_1_0_0 edge_5_2_0_0 edge_5_3_0_0
 edge_5_4_0_0 edge_5_6_0_0 edge_5_7_0_0 edge_5_8_0_0 edge_5_9_0_0
 edge_5_10_0_0 edge_5_11_0_0 edge_5_12_0_0 edge_5_13_0_0 edge_5_19_0_0
 edge_5_20_0_0 edge_6_1_0_0 edge_6_2_0_0 edge_6_3_0_0 edge_6_4_0_0
 edge_6_5_0_0 edge_6_7_0_0 edge_6_8_0_0 edge_6_9_0_0 edge_6_10_0_0
 edge_6_11_0_0 edge_6_12_0_0 edge_6_13_0_0 edge_6_18_0_0 edge_6_19_0_0
 edge_6_20_0_0 edge_7_1_0_0 edge_7_2_0_0 edge_7_3_0_0 edge_7_4_0_0
 edge_7_5_0_0 edge_7_6_0_0 edge_7_8_0_0 edge_7_9_0_0 edge_7_10_0_0
 edge_7_11_0_0 edge_7_12_0_0 edge_7_13_0_0 edge_7_18_0_0 edge_7_19_0_0
 edge_7_20_0_0 edge_8_1_0_0 edge_8_2_0_0 edge_8_3_0_0 edge_8_4_0_0
 edge_8_5_0_0 edge_8_6_0_0 edge_8_7_0_0 edge_8_9_0_0 edge_8_10_0_0
 edge_8_11_0_0 edge_8_12_0_0 edge_8_13_0_0 edge_8_16_0_0 edge_8_18_0_0
 edge_8_19_0_0 edge_8_20_0_0 edge_9_1_0_0 edge_9_5_0_0 edge_9_6_0_0
 edge_9_7_0_0 edge_9_8_0_0 edge_9_10_0_0 edge_9_11_0_0 edge_9_12_0_0
 edge_9_13_0_0 edge_9_18_0_0 edge_9_19_0_0 edge_9_20_0_0 edge_10_1_0_0
 edge_10_2_0_0 edge_10_3_0_0 edge_10_4_0_0 edge_10_5_0_0 edge_10_6_0_0
 edge_10_7_0_0 edge_10_8_0_0 edge_10_9_0_0 edge_10_11_0_0 edge_10_12_0_0
 edge_10_13_0_0 edge_10_16_0_0 edge_10_18_0_0 edge_10_19_0_0 edge_10_20_0_0
 edge_11_1_0_0 edge_11_2_0_0 edge_11_3_0_0 edge_11_4_0_0 edge_11_5_0_0
 edge_11_6_0_0 edge_11_7_0_0 edge_11_8_0_0 edge_11_9_0_0 edge_11_10_0_0
 edge_11_12_0_0 edge_11_13_0_0 edge_11_20_0_0 edge_12_1_0_0 edge_12_2_0_0
 edge_12_3_0_0 edge_12_4_0_0 edge_12_5_0_0 edge_12_6_0_0 edge_12_7_0_0
 edge_12_8_0_0 edge_12_9_0_0 edge_12_10_0_0 edge_12_11_0_0 edge_12_13_0_0
 edge_12_16_0_0 edge_12_18_0_0 edge_12_19_0_0 edge_12_20_0_0 edge_13_1_0_0
 edge_13_2_0_0 edge_13_3_0_0 edge_13_4_0_0 edge_13_5_0_0 edge_13_6_0_0
 edge_13_7_0_0 edge_13_8_0_0 edge_13_9_0_0 edge_13_10_0_0 edge_13_11_0_0
 edge_13_12_0_0 edge_13_13_0_0 edge_13_16_0_0 edge_13_18_0_0 edge_13_19_0_0
 edge_13_20_0_0 edge_16_2_0_0 edge_16_6_0_0 edge_16_7_0_0 edge_16_8_0_0
 edge_16_9_0_0 edge_16_10_0_0 edge_16_12_0_0 edge_16_13_0_0 edge_16_18_0_0
 edge_18_10_0_0 edge_18_12_0_0 edge_18_13_0_0 edge_18_20_0_0 edge_19_2_0_0
 edge_19_3_0_0 edge_19_4_0_0 edge_19_5_0_0 edge_19_6_0_0 edge_19_7_0_0
 edge_19_8_0_0 edge_19_9_0_0 edge_19_10_0_0 edge_19_12_0_0 edge_19_13_0_0
 edge_19_18_0_0 edge_19_20_0_0 edge_20_13_0_0
End
